NAME : dataset11.tour
TYPE : TOUR
DIMENSION : 11
SOLUTION : 1884.8101453950653
TOUR_SECTION
4,2,5,10,11,7,6,8,9,3,1,4
63.07354 - 4,2
45.20269 - 2,5
121.596985 - 5,10
241.01755 - 10,11
89.58448 - 11,7
93.1013 - 7,6
167.44188 - 6,8
513.3101 - 8,9
253.15393 - 9,3
80.98437 - 3,1
108.17164 - 1,4
EOF